Instance0
Objective;Best_Integer;Best_Bound
0.0000;0.0000;106
0.0000;MIRcuts:6;109
0.0000;MIRcuts:3;110
0.0000;0.0000;110
CPXPARAM_MIP_Cuts_MIRCut 3
Instance1
Objective;Best_Integer;Best_Bound
0.0000;0.0000;113
0.0000;0.0000;113
CPXPARAM_MIP_Cuts_MIRCut 0
Instance2
Objective;Best_Integer;Best_Bound
0;-0.0000;101
CPXPARAM_MIP_Cuts_MIRCut 0
Instance3
Objective;Best_Integer;Best_Bound
0;-0.0000;76
CPXPARAM_MIP_Cuts_MIRCut 0
Instance4
Objective;Best_Integer;Best_Bound
0.0000;0.0000;109
0.0000;MIRcuts:5;124
0.0000;MIRcuts:5;126
0.0000;0.0000;126
CPXPARAM_MIP_Cuts_MIRCut 2
Instance5
Objective;Best_Integer;Best_Bound
0;-0.0000;118
CPXPARAM_MIP_Cuts_MIRCut 0
Instance6
Objective;Best_Integer;Best_Bound
0;0.0000;85
CPXPARAM_MIP_Cuts_MIRCut 0
Instance7
Objective;Best_Integer;Best_Bound
0;0.0000;72
CPXPARAM_MIP_Cuts_MIRCut 0
Instance8
Objective;Best_Integer;Best_Bound
-0.0000;-0.0000;123
-0.0000;MIRcuts:13;160
-0.0000;-0.0000;160
CPXPARAM_MIP_Cuts_MIRCut 4
Instance9
Objective;Best_Integer;Best_Bound
-0.0000;-0.0000;113
-0.0000;-0.0000;132
CPXPARAM_MIP_Cuts_MIRCut 0
Instance10
Objective;Best_Integer;Best_Bound
0.0000;0.0000;94
0;0.0000;101
0.0000;0.0000;0.0000
CPXPARAM_MIP_Cuts_MIRCut 0
Instance11
Objective;Best_Integer;Best_Bound
0;0.0000;88
CPXPARAM_MIP_Cuts_MIRCut 0
Instance12
Objective;Best_Integer;Best_Bound
0.0000;0.0000;106
0;MIRcuts:5;144
cutoff;0.0000;144
CPXPARAM_MIP_Cuts_MIRCut 0
Instance13
Objective;Best_Integer;Best_Bound
-0.0000;-0.0000;102
0;-0.0000;115
-0.0000;-0.0000;-0.0000
CPXPARAM_MIP_Cuts_MIRCut 0
Instance14
Objective;Best_Integer;Best_Bound
-0.0000;-0.0000;78
0;-0.0000;86
-0.0000;-0.0000;-0.0000
CPXPARAM_MIP_Cuts_MIRCut 0
Instance15
Objective;Best_Integer;Best_Bound
0;0.0000;79
CPXPARAM_MIP_Cuts_MIRCut 0
Instance16
Objective;Best_Integer;Best_Bound
-0.0000;-0.0000;123
0;MIRcuts:1;143
cutoff;-0.0000;143
CPXPARAM_MIP_Cuts_MIRCut 0
Instance17
Objective;Best_Integer;Best_Bound
0;-0.0000;95
CPXPARAM_MIP_Cuts_MIRCut 0
Instance18
Objective;Best_Integer;Best_Bound
0;-0.0000;72
CPXPARAM_MIP_Cuts_MIRCut 0
Instance19
Objective;Best_Integer;Best_Bound
0;0.0000;85
CPXPARAM_MIP_Cuts_MIRCut 0
Instance20
Objective;Best_Integer;Best_Bound
0.0000;0.0000;115
0.0000;0.0000;136
CPXPARAM_MIP_Cuts_MIRCut 0
Instance21
Objective;Best_Integer;Best_Bound
-0.0000;-0.0000;114
0.0000;0.0000;131
CPXPARAM_MIP_Cuts_MIRCut 0
Instance22
Objective;Best_Integer;Best_Bound
0;0.0000;68
CPXPARAM_MIP_Cuts_MIRCut 0
Instance23
Objective;Best_Integer;Best_Bound
0;0.0000;71
CPXPARAM_MIP_Cuts_MIRCut 0
Instance24
Objective;Best_Integer;Best_Bound
0.0000;0.0000;120
0.0000;0.0000;120
CPXPARAM_MIP_Cuts_MIRCut 0
Instance25
Objective;Best_Integer;Best_Bound
0.0000;0.0000;151
0.0000;0.0000;151
CPXPARAM_MIP_Cuts_MIRCut 0
Instance26
Objective;Best_Integer;Best_Bound
0;0.0000;70
CPXPARAM_MIP_Cuts_MIRCut 0
Instance27
Objective;Best_Integer;Best_Bound
0;-0.0000;71
CPXPARAM_MIP_Cuts_MIRCut 0
Instance28
Objective;Best_Integer;Best_Bound
0.0000;0.0000;121
0.0000;0.0000;121
CPXPARAM_MIP_Cuts_MIRCut 0
Instance29
Objective;Best_Integer;Best_Bound
-0.0000;-0.0000;126
-0.0000;-0.0000;149
CPXPARAM_MIP_Cuts_MIRCut 0
Instance30
Objective;Best_Integer;Best_Bound
0;0.0000;82
CPXPARAM_MIP_Cuts_MIRCut 0
Instance31
Objective;Best_Integer;Best_Bound
0;-0.0000;77
CPXPARAM_MIP_Cuts_MIRCut 0
Instance32
Objective;Best_Integer;Best_Bound
0.0000;0.0000;147
0.0000;0.0000;174
CPXPARAM_MIP_Cuts_MIRCut 0
Instance33
Objective;Best_Integer;Best_Bound
-0.0000;-0.0000;101
-0.0000;-0.0000;101
CPXPARAM_MIP_Cuts_MIRCut 0
Instance34
Objective;Best_Integer;Best_Bound
0;0.0000;75
CPXPARAM_MIP_Cuts_MIRCut 0
Instance35
Objective;Best_Integer;Best_Bound
0;0.0000;81
CPXPARAM_MIP_Cuts_MIRCut 0
Instance36
Objective;Best_Integer;Best_Bound
-0.0000;-0.0000;118
0;-0.0000;134
-0.0000;-0.0000;-0.0000
CPXPARAM_MIP_Cuts_MIRCut 0
Instance37
Objective;Best_Integer;Best_Bound
0;0.0000;118
CPXPARAM_MIP_Cuts_MIRCut 0
Instance38
Objective;Best_Integer;Best_Bound
0;0.0000;72
CPXPARAM_MIP_Cuts_MIRCut 0
Instance39
Objective;Best_Integer;Best_Bound
0;0.0000;81
CPXPARAM_MIP_Cuts_MIRCut 0
